# Solution for model r10_t9_m8_0 Batch Number: 1
# Finished Task: 9 / 9
# Makespan: 441.0, Total Distance: 100.0, Total Time: 4.4645
# R O S F Batch
0 0 -1 0.0 0.0 -1
1 1 -1 0.0 0.0 -1
2 2 12 0.0 0.0 -1
3 3 -1 0.0 0.0 -1
4 4 14 0.0 0.0 -1
5 5 16 0.0 0.0 -1
6 6 10 0.0 0.0 -1
7 7 11 0.0 0.0 -1
8 8 -1 0.0 0.0 -1
9 9 13 0.0 0.0 -1
10 6 -1 399.0 434.0 0
11 7 -1 383.0 406.0 0
12 2 17 181.0 207.0 0
13 9 -1 115.0 146.0 0
14 4 15 378.0 399.0 0
15 4 -1 410.0 441.0 0
16 5 -1 374.0 403.0 0
17 2 18 357.0 393.0 0
18 2 -1 409.0 430.0 0
